&bands
   outdir = './outputs',
   prefix = 'si',
   filband= 'Si_bands_wo_soc.dat',
   lsym=.true.
/
