&BANDS
outdir='./outputs',
prefix='cdte',
filband='cdtebands.dat',
/
