#************************************************************************************
#*                   Generated by cif2cell 2.1.0 2024-12-19 5:08                    *
#*  T. Bjorkman, Comp. Phys. Commun. 182, 1183-1186 (2011). Please cite generously. *
#*                                                                                  *
#*                              Data obtained from COD                              *
#*                                    CdTe   ()                                     *
#*             Failed to get author information, No journal information             *
#************************************************************************************
&CONTROL
  calculation='scf',
  outdir='./outputs',
  prefix='cdte',
  pseudo_dir='../Pseudopotentials',
  verbosity='low',
  tprnfor=.true.,
  tstress=.true.,
/
&SYSTEM
  ibrav = 0
  A =    4.68744
  nat = 2
  ntyp = 2
  ecutwfc=50,
  ecutrho=200,
  input_dft='pbe',
  occupations='smearing',
  smearing='mv',
  degauss=0.005d0,
/
&ELECTRONS
  conv_thr=1d-08,
  mixing_beta=0.7d0,
  diago_david_ndim = 4
/
CELL_PARAMETERS {alat}
  1.000000000000000   0.000000000000000   0.000000000000000 
  0.500000000000000   0.866025403784439   0.000000000000000 
  0.500000000000000   0.288675134594813   0.816496580927726 
ATOMIC_SPECIES
  Cd  112.41100  Cd.pbe-n-kjpaw_psl.1.0.0.UPF
  Te  127.60000  Te.pbe-n-kjpaw_psl.1.0.0.UPF
ATOMIC_POSITIONS {crystal}
Te   0.250000000000000   0.250000000000000   0.250000000000000 
Cd   0.000000000000000   0.000000000000000   0.000000000000000 
K_POINTS {automatic}
  7 7 7 0 0 0
