&bands
   outdir = './outputs',
   prefix = 'gaalas_sl',
   filband= 'GaAlAs_sl_bands.dat',
   lsym=.true.
/
