&BANDS
outdir='./outputs',
prefix='inp',
filband='inpbands.dat',
/
