#************************************************************************************
#*                   Generated by cif2cell 2.1.0 2024-12-12 8:21                    *
#*  T. Bjorkman, Comp. Phys. Commun. 182, 1183-1186 (2011). Please cite generously. *
#*                                                                                  *
#*                              Data obtained from COD                              *
#*                                     Si   ()                                      *
#*             Failed to get author information, No journal information             *
#************************************************************************************
&CONTROL
calculation='scf',
outdir='./outputs',
prefix='silicon',
pseudo_dir='.',
verbosity='low',
tprnfor=.true.,
tstress=.true.,
/
&SYSTEM
  ibrav = 0
  A =    5.46873
  nat = 8
  ntyp = 1
  ecutwfc=60,
ecutrho=360,
input_dft='pbe',
occupations='smearing',
smearing='mv',
degauss=0.005d0
/
&ELECTRONS
conv_thr=1d-08,
mixing_beta=0.7d0,
/
CELL_PARAMETERS {alat}
  1.000000000000000   0.000000000000000   0.000000000000000 
  0.000000000000000   1.000000000000000   0.000000000000000 
  0.000000000000000   0.000000000000000   1.000000000000000 
ATOMIC_SPECIES
  Si   28.08500  Si.pbe-n-kjpaw_psl.1.0.0.UPF
ATOMIC_POSITIONS {crystal}
Si   0.250000000000000   0.750000000000000   0.250000000000000 
Si   0.000000000000000   0.000000000000000   0.500000000000000 
Si   0.250000000000000   0.250000000000000   0.750000000000000 
Si   0.000000000000000   0.500000000000000   0.000000000000000 
Si   0.750000000000000   0.750000000000000   0.750000000000000 
Si   0.500000000000000   0.000000000000000   0.000000000000000 
Si   0.750000000000000   0.250000000000000   0.250000000000000 
Si   0.500000000000000   0.500000000000000   0.500000000000000 
K_POINTS {automatic}
7 7 7 0 0 0
