&bands
   outdir = './outputs',
   prefix = 'gaas',
   filband= 'GaAs_bands_w_soc.dat',
   lsym=.true.
/
