#************************************************************************************
#*                   Generated by cif2cell 2.1.0 2024-12-18 4:41                    *
#*  T. Bjorkman, Comp. Phys. Commun. 182, 1183-1186 (2011). Please cite generously. *
#*                                                                                  *
#*                              Data obtained from COD                              *
#*                                    GaAs   ()                                     *
#*             Failed to get author information, No journal information             *
#************************************************************************************
&CONTROL
  calculation='scf',
  outdir='./outputs',
  prefix='gaas',
  pseudo_dir='../Pseudopotentials',
  verbosity='high',
  tprnfor=.true.,
  tstress=.true.,
/
&SYSTEM
  ibrav = 0,
  A =    4.06599,
  nat = 2,
  ntyp = 2,
  ecutwfc=50,
  ecutrho=200,
  input_dft='pbe',
  occupations='smearing',
  smearing='mv',
  degauss=0.005d0,
  lspinorb = .TRUE.
  noncolin = .TRUE.
/
&ELECTRONS
  conv_thr=1d-08,
  mixing_beta=0.3d0,
  electron_maxstep = 80,
  diago_david_ndim = 4
/
CELL_PARAMETERS {alat}
  1.000000000000000   0.000000000000000   0.000000000000000 
  0.500000000000000   0.866025403784439   0.000000000000000 
  0.500000000000000   0.288675134594813   0.816496580927726 
ATOMIC_SPECIES
  As   74.92100  As.rel-pbe-n-kjpaw_psl.1.0.0.UPF
  Ga   69.72300  Ga.rel-pbe-dn-kjpaw_psl.1.0.0.UPF
ATOMIC_POSITIONS {crystal}
As   0.250000000000000   0.250000000000000   0.250000000000000 
Ga   0.000000000000000   0.000000000000000   0.000000000000000 
K_POINTS {automatic}
  7 7 7 0 0 0
