&BANDS
outdir='./outputs',
prefix='basic',
filband='siliconbands.dat',
/
