&bands
   outdir = './outputs',
   prefix = 'ge',
   filband= 'Ge_bands_w_soc.dat',
   lsym=.true.
/
