&BANDS
outdir='./outputs',
prefix='gap',
filband='gapbands.dat',
/
