&BANDS
outdir='./outputs',
prefix='basic',
filband='inasbands.dat',
/
