&INPUTPP
prefix='gaas',
outdir='./outputs',
filplot='pp.chargedensity.txt',
plot_num=9,
/
&PLOT
nfile=1,
iflag=3,
output_format=3,
fileout='gaaschargedensity.xsf',
e1(1)=1.0,e1(2)=0.0,e1(3)=0.0,
e2(1)=0.0,e2(2)=1.0,e2(3)=0.0,
e3(1)=0.0,e3(2)=0.0,e3(3)=1.0,
x0(1)=0.0,x0(2)=0.0,x0(3)=0.0,
nx=101, ny=101, nz=101,
/
