&BANDS
outdir='./outputs',
prefix='gaalas25',
filband='gaalasbands25.dat',
/
