&BANDS
outdir='./outputs',
prefix='gaalas75',
filband='gaalasbands75.dat',
/
