&BANDS
outdir='./outputs',
prefix='gaalas50',
filband='gaalasbands50.dat',
/
