&BANDS
outdir='./outputs',
prefix='basic',
filband='gaasbands.dat',
/
