&BANDS
outdir='./outputs',
prefix='basic',
filband='germaniumbands.dat',
/
