#************************************************************************************
#*                   Generated by cif2cell 2.1.0 2025-01-05 19:26                   *
#*  T. Bjorkman, Comp. Phys. Commun. 182, 1183-1186 (2011). Please cite generously. *
#*                                                                                  *
#*                                    None   ()                                     *
#*    Leszczynski, M. et al., Crystal Research and Technology 27, 97-100 (1992)     *
#************************************************************************************
&CONTROL
  calculation='scf',
  outdir='./outputs',
  prefix='gaalas_sl',
  pseudo_dir='../../Chapter11/Pseudopotentials',
  verbosity='low',
  tprnfor=.true.,
  tstress=.true.,
/
&SYSTEM
  ibrav = 0
  A =    5.66080
  nat = 40
  ntyp = 3
  nspin = 2,
  ecutwfc=30,
  ecutrho=120,
  input_dft='pbe',
  occupations='smearing',
  smearing='mv',
  degauss=0.005d0,
  starting_magnetization(1) = 1
  starting_magnetization(2) = 1
  starting_magnetization(3) = 1
/
&ELECTRONS
  conv_thr=1d-07,
  mixing_beta=0.3d0,
  electron_maxstep = 80,
  diago_david_ndim = 4
/
CELL_PARAMETERS {alat}
  1.000000000000000   0.000000000000000   0.000000000000000 
  0.000000000000000   1.000000000000000   0.000000000000000 
  0.000000000000000   0.000000000000000   5.000000000000000 
ATOMIC_SPECIES
  Al   26.98100  Al.pbe-n-kjpaw_psl.1.0.0.UPF
  As   74.92100  As.pbe-n-kjpaw_psl.1.0.0.UPF
  Ga   69.72300  Ga.pbe-dn-kjpaw_psl.1.0.0.UPF
ATOMIC_POSITIONS {crystal}
As   0.250000000000000   0.250000000000000   0.050000000000000 
As   0.750000000000000   0.250000000000000   0.150000000000000 
As   0.750000000000000   0.750000000000000   0.050000000000000 
As   0.250000000000000   0.750000000000000   0.150000000000000 
As   0.250000000000000   0.250000000000000   0.850000000000000 
As   0.250000000000000   0.250000000000000   0.450000000000000 
As   0.250000000000000   0.250000000000000   0.250000000000000 
As   0.250000000000000   0.250000000000000   0.650000000000000 
As   0.750000000000000   0.250000000000000   0.950000000000000 
As   0.750000000000000   0.250000000000000   0.550000000000000 
As   0.750000000000000   0.250000000000000   0.350000000000000 
As   0.750000000000000   0.250000000000000   0.750000000000000 
As   0.750000000000000   0.750000000000000   0.850000000000000 
As   0.750000000000000   0.750000000000000   0.450000000000000 
As   0.750000000000000   0.750000000000000   0.250000000000000 
As   0.750000000000000   0.750000000000000   0.650000000000000 
As   0.250000000000000   0.750000000000000   0.950000000000000 
As   0.250000000000000   0.750000000000000   0.550000000000000 
As   0.250000000000000   0.750000000000000   0.350000000000000 
As   0.250000000000000   0.750000000000000   0.750000000000000 
Al	0.000000000000000	0.000000000000000	0.000000000000000
Al	0.500000000000000	0.500000000000000	0.000000000000000
Al	0.500000000000000	0.000000000000000	0.100000000000000
Al	0.000000000000000	0.500000000000000	0.100000000000000
Ga	0.000000000000000	0.000000000000000	0.200000000000000
Ga	0.500000000000000	0.500000000000000	0.200000000000000
Ga	0.500000000000000	0.000000000000000	0.300000000000000
Ga	0.000000000000000	0.500000000000000	0.300000000000000
Al	0.000000000000000	0.000000000000000	0.400000000000000
Al	0.500000000000000	0.500000000000000	0.400000000000000
Al	0.500000000000000	0.000000000000000	0.500000000000000
Al	0.000000000000000	0.500000000000000	0.500000000000000
Ga	0.000000000000000	0.000000000000000	0.600000000000000
Ga	0.500000000000000	0.500000000000000	0.600000000000000
Ga	0.500000000000000	0.000000000000000	0.700000000000000
Ga	0.000000000000000	0.500000000000000	0.700000000000000
Al	0.000000000000000	0.000000000000000	0.800000000000000
Al	0.500000000000000	0.500000000000000	0.800000000000000
Al	0.500000000000000	0.000000000000000	0.900000000000000
Al	0.000000000000000	0.500000000000000	0.900000000000000
K_POINTS {automatic}
  3 3 3 0 0 0
